ISPIN  = 2
NELECT = 399
LREAL  = A
ISMEAR = -5
IBRION = 2
NSW = 10
EDIFFG = -0.02
LMAXMIX = 4
LDAU     = T
LDAUTYPE = 2
LDAUL    = -1 -1 -1 -1  1
LDAUU    =  0  0  0  0  8
LASPH    = T
LORBIT = 11
NPAR = 9 
