ISPIN  = 2
NELECT = 49
LREAL  = A
ISMEAR = -5
IBRION = 2
NSW = 10
EDIFFG = -0.02
LORBIT = 11
NPAR = 12 
