k-points along high symmetry lines
10
line
rec
 0.5 0.0 0.5 !M1
 0.5 0.5 0.5 !R

 0.5 0.5 0.5 !R
 0.0 0.0 0.5 !X1

 0.0 0.0 0.5 !X1
 0.0 0.5 0.5 !M2

 0.0 0.5 0.5 !M2
 0.5 0.5 0.5 !R

 0.5 0.5 0.5 !R
 0.0 0.5 0.0 !X2

 0.0 0.5 0.0 !X2
 0.5 0.5 0.0 !M3

 0.5 0.5 0.0 !M3
 0.5 0.5 0.5 !R

 0.5 0.5 0.5 !R
 0.5 0.0 0.0 !X3

 0.5 0.0 0.0 !X3
 0.0 0.0 0.0 !G

 0.0 0.0 0.0 !G
 0.5 0.5 0.5 !R

 0.5 0.5 0.5 !R
 0.5 0.0 0.5 !M1 
