MA-Pb-I (Pseudocubic)                   
   1.00000000000000     
     6.2901201247999996    0.0000000000000000    0.0000000000000000
     0.0000776940000000    6.2738900180000003    0.0000000000000000
    -0.0396675710000000   -0.0001537931000000    6.2969150416000002
   C    N    H    Pb   I 
     1     1     6     1     3
Direct
  0.9002318628825041 -0.0000063887502767  0.9955514218404914
  0.1322658292577462  0.9998698946204310  0.0261749129786254
  0.8630877467087233  0.9997923920423062  0.8238057737524358
  0.8335196536422995  0.1439149238585548  0.0702338285389247
  0.8332556083319819  0.8564895131531768  0.0706568363119773
  0.2040311764075990  0.1336740845740158  0.9589909204508855
  0.2038056395687741  0.8656590795911199  0.9593499598870436
  0.1757990419483237  0.0000264317524012  0.1872799322241133
  0.4961631389217288  0.5000236771394103  0.4930450880158714
  0.4007898978581580  0.4998364746378194  0.9888131479533779
  0.4435534047200919  0.0000123917499277  0.5126458314338310
  0.9914770157520802  0.5000095296311068  0.4092403386124407
