MAPbI Cubic 3x3x3			                    
   1.00000000000000     
    18.8663997650000006    0.0000000000000000    0.0000000000000000
     0.0046281127000000   18.6863092412999983    0.0000000000000000
     0.4191994031000000   -0.0010994220000000   19.1176751447999997
   C    N    H    Pb   I 
    27    27   162    27    81
Direct
  0.2984680226860613  0.3332681247055921  0.1528864365338427
  0.2984680226860613  0.3332681247055921  0.4862197795338424
  0.2984680226860613  0.3332681247055921  0.8195530935338430
  0.2984680051044019  0.6666014649029013  0.1528864239021061
  0.2984680051044019  0.6666014649029013  0.4862197669021057
  0.2984680051044019  0.6666014649029013  0.8195530809021065
  0.2984679965927540  0.9999347464927627  0.1528864171305278
  0.2984679965927540  0.9999347464927627  0.4862197601305274
  0.2984679965927540  0.9999347464927627  0.8195530741305280
  0.6318013666860647  0.3332681247055921  0.1528864365338427
  0.6318013666860647  0.3332681247055921  0.4862197795338424
  0.6318013666860647  0.3332681247055921  0.8195530935338430
  0.6318013491044051  0.6666014649029013  0.1528864239021061
  0.6318013491044051  0.6666014649029013  0.4862197669021057
  0.6318013491044051  0.6666014649029013  0.8195530809021065
  0.6318013405927573  0.9999347464927627  0.1528864171305278
  0.6318013405927573  0.9999347464927627  0.4862197601305274
  0.6318013405927573  0.9999347464927627  0.8195530741305280
  0.9651346796860618  0.3332681247055921  0.1528864365338427
  0.9651346796860618  0.3332681247055921  0.4862197795338424
  0.9651346796860618  0.3332681247055921  0.8195530935338430
  0.9651346621044022  0.6666014649029013  0.1528864239021061
  0.9651346621044022  0.6666014649029013  0.4862197669021057
  0.9651346621044022  0.6666014649029013  0.8195530809021065
  0.9651346535927544  0.9999347464927627  0.1528864171305278
  0.9651346535927544  0.9999347464927627  0.4862197601305274
  0.9651346535927544  0.9999347464927627  0.8195530741305280
  0.0365721872458867  0.0000019422077289  0.1824401483389775
  0.0365721872458867  0.0000019422077289  0.5157735063389748
  0.0365721872458867  0.0000019422077289  0.8491068203389756
  0.0365722101267571  0.3333352419329180  0.1824400987908616
  0.0365722101267571  0.3333352419329180  0.5157734567908591
  0.0365722101267571  0.3333352419329180  0.8491067707908598
  0.0365722476308635  0.6666685374772214  0.1824400466120479
  0.0365722476308635  0.6666685374772214  0.5157734046120451
  0.0365722476308635  0.6666685374772214  0.8491067186120459
  0.3699055302458864  0.0000019422077289  0.1824401483389775
  0.3699055302458864  0.0000019422077289  0.5157735063389748
  0.3699055302458864  0.0000019422077289  0.8491068203389756
  0.3699055531267568  0.3333352419329180  0.1824400987908616
  0.3699055531267568  0.3333352419329180  0.5157734567908591
  0.3699055531267568  0.3333352419329180  0.8491067707908598
  0.3699055906308631  0.6666685374772214  0.1824400466120479
  0.3699055906308631  0.6666685374772214  0.5157734046120451
  0.3699055906308631  0.6666685374772214  0.8491067186120459
  0.7032388732458861  0.0000019422077289  0.1824401483389775
  0.7032388732458861  0.0000019422077289  0.5157735063389748
  0.7032388732458861  0.0000019422077289  0.8491068203389756
  0.7032388961267563  0.3333352419329180  0.1824400987908616
  0.7032388961267563  0.3333352419329180  0.5157734567908591
  0.7032388961267563  0.3333352419329180  0.8491067707908598
  0.7032389336308628  0.6666685374772214  0.1824400466120479
  0.7032389336308628  0.6666685374772214  0.5157734046120451
  0.7032389336308628  0.6666685374772214  0.8491067186120459
  0.3034115993940215  0.3332133061599182  0.0952955675781015
  0.3034115993940215  0.3332133061599182  0.4286288885780994
  0.3034115993940215  0.3332133061599182  0.7619622615781015
  0.3034116251873674  0.6665466276596003  0.0952955807871943
  0.3034116251873674  0.6665466276596003  0.4286289017871922
  0.3034116251873674  0.6665466276596003  0.7619622747871942
  0.3034116148286084  0.9998799869248851  0.0952955993551179
  0.3034116148286084  0.9998799869248851  0.4286289203551157
  0.3034116148286084  0.9998799869248851  0.7619622933551177
  0.6367449423940210  0.3332133061599182  0.0952955675781015
  0.6367449423940210  0.3332133061599182  0.4286288885780994
  0.6367449423940210  0.3332133061599182  0.7619622615781015
  0.6367449681873670  0.6665466276596003  0.0952955807871943
  0.6367449681873670  0.6665466276596003  0.4286289017871922
  0.6367449681873670  0.6665466276596003  0.7619622747871942
  0.6367449578286081  0.9998799869248851  0.0952955993551179
  0.6367449578286081  0.9998799869248851  0.4286289203551157
  0.6367449578286081  0.9998799869248851  0.7619622933551177
  0.9700782553940253  0.3332133061599182  0.0952955675781015
  0.9700782553940253  0.3332133061599182  0.4286288885780994
  0.9700782553940253  0.3332133061599182  0.7619622615781015
  0.9700782811873713  0.6665466276596003  0.0952955807871943
  0.9700782811873713  0.6665466276596003  0.4286289017871922
  0.9700782811873713  0.6665466276596003  0.7619622747871942
  0.9700782708286123  0.9998799869248851  0.0952955993551179
  0.9700782708286123  0.9998799869248851  0.4286289203551157
  0.9700782708286123  0.9998799869248851  0.7619622933551177
  0.2695695340973551  0.0482448719459686  0.1704157093279957
  0.2695695340973551  0.0482448719459686  0.5037490683279966
  0.2695695340973551  0.0482448719459686  0.8370823813279937
  0.2695695076275761  0.3815781953595821  0.1704157228312539
  0.2695695076275761  0.3815781953595821  0.5037490818312550
  0.2695695076275761  0.3815781953595821  0.8370823948312521
  0.2695695012966143  0.7149115145391756  0.1704157460061819
  0.2695695012966143  0.7149115145391756  0.5037491050061829
  0.2695695012966143  0.7149115145391756  0.8370824180061800
  0.6029028480973559  0.0482448719459686  0.1704157093279957
  0.6029028480973559  0.0482448719459686  0.5037490683279966
  0.6029028480973559  0.0482448719459686  0.8370823813279937
  0.6029028216275769  0.3815781953595821  0.1704157228312539
  0.6029028216275769  0.3815781953595821  0.5037490818312550
  0.6029028216275769  0.3815781953595821  0.8370823948312521
  0.6029028152966148  0.7149115145391756  0.1704157460061819
  0.6029028152966148  0.7149115145391756  0.5037491050061829
  0.6029028152966148  0.7149115145391756  0.8370824180061800
  0.9362362210973509  0.0482448719459686  0.1704157093279957
  0.9362362210973509  0.0482448719459686  0.5037490683279966
  0.9362362210973509  0.0482448719459686  0.8370823813279937
  0.9362361946275719  0.3815781953595821  0.1704157228312539
  0.9362361946275719  0.3815781953595821  0.5037490818312550
  0.9362361946275719  0.3815781953595821  0.8370823948312521
  0.9362361882966098  0.7149115145391756  0.1704157460061819
  0.9362361882966098  0.7149115145391756  0.5037491050061829
  0.9362361882966098  0.7149115145391756  0.8370824180061800
  0.2696382893178859  0.2849777278140294  0.1705054138996244
  0.2696382893178859  0.2849777278140294  0.5038387728996254
  0.2696382893178859  0.2849777278140294  0.8371720858996297
  0.2696383124060933  0.6183110433813840  0.1705053986706358
  0.2696383124060933  0.6183110433813840  0.5038387576706367
  0.2696383124060933  0.6183110433813840  0.8371720706706409
  0.2696383082801071  0.9516443980370550  0.1705054081046114
  0.2696383082801071  0.9516443980370550  0.5038387671046124
  0.2696383082801071  0.9516443980370550  0.8371720801046166
  0.6029716323178855  0.2849777278140294  0.1705054138996244
  0.6029716323178855  0.2849777278140294  0.5038387728996254
  0.6029716323178855  0.2849777278140294  0.8371720858996297
  0.6029716554060930  0.6183110433813840  0.1705053986706358
  0.6029716554060930  0.6183110433813840  0.5038387576706367
  0.6029716554060930  0.6183110433813840  0.8371720706706409
  0.6029716512801069  0.9516443980370550  0.1705054081046114
  0.6029716512801069  0.9516443980370550  0.5038387671046124
  0.6029716512801069  0.9516443980370550  0.8371720801046166
  0.9363049463178792  0.2849777278140294  0.1705054138996244
  0.9363049463178792  0.2849777278140294  0.5038387728996254
  0.9363049463178792  0.2849777278140294  0.8371720858996297
  0.9363049694060867  0.6183110433813840  0.1705053986706358
  0.9363049694060867  0.6183110433813840  0.5038387576706367
  0.9363049694060867  0.6183110433813840  0.8371720706706409
  0.9363049652801005  0.9516443980370550  0.1705054081046114
  0.9363049652801005  0.9516443980370550  0.5038387671046124
  0.9363049652801005  0.9516443980370550  0.8371720801046166
  0.0655600946200044  0.0456454042493053  0.1669934269789585
  0.0655600946200044  0.0456454042493053  0.5003267409789592
  0.0655600946200044  0.0456454042493053  0.8336601139789613
  0.0655600416094504  0.3789787022856126  0.1669934391323571
  0.0655600416094504  0.3789787022856126  0.5003267531323579
  0.0655600416094504  0.3789787022856126  0.8336601261323600
  0.0655599979258785  0.7123120049374979  0.1669934687977376
  0.0655599979258785  0.7123120049374979  0.5003267827977383
  0.0655599979258785  0.7123120049374979  0.8336601557977404
  0.3988934156200022  0.0456454042493053  0.1669934269789585
  0.3988934156200022  0.0456454042493053  0.5003267409789592
  0.3988934156200022  0.0456454042493053  0.8336601139789613
  0.3988933626094482  0.3789787022856126  0.1669934391323571
  0.3988933626094482  0.3789787022856126  0.5003267531323579
  0.3988933626094482  0.3789787022856126  0.8336601261323600
  0.3988933189258763  0.7123120049374979  0.1669934687977376
  0.3988933189258763  0.7123120049374979  0.5003267827977383
  0.3988933189258763  0.7123120049374979  0.8336601557977404
  0.7322267886200043  0.0456454042493053  0.1669934269789585
  0.7322267886200043  0.0456454042493053  0.5003267409789592
  0.7322267886200043  0.0456454042493053  0.8336601139789613
  0.7322267356094503  0.3789787022856126  0.1669934391323571
  0.7322267356094503  0.3789787022856126  0.5003267531323579
  0.7322267356094503  0.3789787022856126  0.8336601261323600
  0.7322266919258783  0.7123120049374979  0.1669934687977376
  0.7322266919258783  0.7123120049374979  0.5003267827977383
  0.7322266919258783  0.7123120049374979  0.8336601557977404
  0.0656094668159642  0.2876747088713826  0.1670794152397782
  0.0656094668159642  0.2876747088713826  0.5004127732397828
  0.0656094668159642  0.2876747088713826  0.8337460862397800
  0.0656094441953545  0.6210080584708179  0.1670794229475948
  0.0656094441953545  0.6210080584708179  0.5004127809475991
  0.0656094441953545  0.6210080584708179  0.8337460939475962
  0.0656095003390488  0.9543413308126643  0.1670794141763591
  0.0656095003390488  0.9543413308126643  0.5004127721763636
  0.0656095003390488  0.9543413308126643  0.8337460851763607
  0.3989427878159690  0.2876747088713826  0.1670794152397782
  0.3989427878159690  0.2876747088713826  0.5004127732397828
  0.3989427878159690  0.2876747088713826  0.8337460862397800
  0.3989427651953594  0.6210080584708179  0.1670794229475948
  0.3989427651953594  0.6210080584708179  0.5004127809475991
  0.3989427651953594  0.6210080584708179  0.8337460939475962
  0.3989428213390537  0.9543413308126643  0.1670794141763591
  0.3989428213390537  0.9543413308126643  0.5004127721763636
  0.3989428213390537  0.9543413308126643  0.8337460851763607
  0.7322761608159641  0.2876747088713826  0.1670794152397782
  0.7322761608159641  0.2876747088713826  0.5004127732397828
  0.7322761608159641  0.2876747088713826  0.8337460862397800
  0.7322761381953545  0.6210080584708179  0.1670794229475948
  0.7322761381953545  0.6210080584708179  0.5004127809475991
  0.7322761381953545  0.6210080584708179  0.8337460939475962
  0.7322761943390488  0.9543413308126643  0.1670794141763591
  0.7322761943390488  0.9543413308126643  0.5004127721763636
  0.7322761943390488  0.9543413308126643  0.8337460851763607
  0.0355152463094136  0.0000613885317112  0.2375801701024941
  0.0355152463094136  0.0000613885317112  0.5709135281024914
  0.0355152463094136  0.0000613885317112  0.9042468411024885
  0.0355152412822367  0.3333947308967442  0.2375801486167995
  0.0355152412822367  0.3333947308967442  0.5709135066167971
  0.0355152412822367  0.3333947308967442  0.9042468196167942
  0.0355152114737221  0.6667280642718237  0.2375801678875749
  0.0355152114737221  0.6667280642718237  0.5709135258875722
  0.0355152114737221  0.6667280642718237  0.9042468388875693
  0.3688485673094185  0.0000613885317112  0.2375801701024941
  0.3688485673094185  0.0000613885317112  0.5709135281024914
  0.3688485673094185  0.0000613885317112  0.9042468411024885
  0.3688485622822417  0.3333947308967442  0.2375801486167995
  0.3688485622822417  0.3333947308967442  0.5709135066167971
  0.3688485622822417  0.3333947308967442  0.9042468196167942
  0.3688485324737270  0.6667280642718237  0.2375801678875749
  0.3688485324737270  0.6667280642718237  0.5709135258875722
  0.3688485324737270  0.6667280642718237  0.9042468388875693
  0.7021819103094180  0.0000613885317112  0.2375801701024941
  0.7021819103094180  0.0000613885317112  0.5709135281024914
  0.7021819103094180  0.0000613885317112  0.9042468411024885
  0.7021819052822411  0.3333947308967442  0.2375801486167995
  0.7021819052822411  0.3333947308967442  0.5709135066167971
  0.7021819052822411  0.3333947308967442  0.9042468196167942
  0.7021818754737268  0.6667280642718237  0.2375801678875749
  0.7021818754737268  0.6667280642718237  0.5709135258875722
  0.7021818754737268  0.6667280642718237  0.9042468388875693
  0.1459697895920606  0.1666600461601997  0.3256325792261889
  0.1459697895920606  0.1666600461601997  0.6589658922261860
  0.1459697895920606  0.1666600461601997  0.9922992652261881
  0.1459698621090905  0.4999934025348556  0.3256325317632451
  0.1459698621090905  0.4999934025348556  0.6589658447632424
  0.1459698621090905  0.4999934025348556  0.9922992177632445
  0.1459698221846387  0.8333267453364426  0.3256324992283183
  0.1459698221846387  0.8333267453364426  0.6589658122283155
  0.1459698221846387  0.8333267453364426  0.9922991852283176
  0.4793031185920592  0.1666600461601997  0.3256325792261889
  0.4793031185920592  0.1666600461601997  0.6589658922261860
  0.4793031185920592  0.1666600461601997  0.9922992652261881
  0.4793031911090889  0.4999934025348556  0.3256325317632451
  0.4793031911090889  0.4999934025348556  0.6589658447632424
  0.4793031911090889  0.4999934025348556  0.9922992177632445
  0.4793031511846371  0.8333267453364426  0.3256324992283183
  0.4793031511846371  0.8333267453364426  0.6589658122283155
  0.4793031511846371  0.8333267453364426  0.9922991852283176
  0.8126364315920632  0.1666600461601997  0.3256325792261889
  0.8126364315920632  0.1666600461601997  0.6589658922261860
  0.8126364315920632  0.1666600461601997  0.9922992652261881
  0.8126365041090932  0.4999934025348556  0.3256325317632451
  0.8126365041090932  0.4999934025348556  0.6589658447632424
  0.8126365041090932  0.4999934025348556  0.9922992177632445
  0.8126364641846414  0.8333267453364426  0.3256324992283183
  0.8126364641846414  0.8333267453364426  0.6589658122283155
  0.8126364641846414  0.8333267453364426  0.9922991852283176
  0.1369912150395307  0.1666544637498896  0.1584309142069474
  0.1369912150395307  0.1666544637498896  0.4917642572069471
  0.1369912150395307  0.1666544637498896  0.8250975702069443
  0.1369912192556342  0.4999877819108441  0.1584309053464903
  0.1369912192556342  0.4999877819108441  0.4917642483464900
  0.1369912192556342  0.4999877819108441  0.8250975613464870
  0.1369912232379261  0.8333211121585663  0.1584309095588758
  0.1369912232379261  0.8333211121585663  0.4917642525588755
  0.1369912232379261  0.8333211121585663  0.8250975655588728
  0.4703245430395327  0.1666544637498896  0.1584309142069474
  0.4703245430395327  0.1666544637498896  0.4917642572069471
  0.4703245430395327  0.1666544637498896  0.8250975702069443
  0.4703245472556362  0.4999877819108441  0.1584309053464903
  0.4703245472556362  0.4999877819108441  0.4917642483464900
  0.4703245472556362  0.4999877819108441  0.8250975613464870
  0.4703245512379280  0.8333211121585663  0.1584309095588758
  0.4703245512379280  0.8333211121585663  0.4917642525588755
  0.4703245512379280  0.8333211121585663  0.8250975655588728
  0.8036578860395324  0.1666544637498896  0.1584309142069474
  0.8036578860395324  0.1666544637498896  0.4917642572069471
  0.8036578860395324  0.1666544637498896  0.8250975702069443
  0.8036578902556358  0.4999877819108441  0.1584309053464903
  0.8036578902556358  0.4999877819108441  0.4917642483464900
  0.8036578902556358  0.4999877819108441  0.8250975613464870
  0.8036578942379276  0.8333211121585663  0.1584309095588758
  0.8036578942379276  0.8333211121585663  0.4917642525588755
  0.8036578942379276  0.8333211121585663  0.8250975655588728
  0.1337447958908691  0.3333270307567957  0.0065941310845739
  0.1337447958908691  0.3333270307567957  0.3399274640845726
  0.1337447958908691  0.3333270307567957  0.6732607770845697
  0.1337447905975734  0.6666603432564243  0.0065941607364376
  0.1337447905975734  0.6666603432564243  0.3399274937364364
  0.1337447905975734  0.6666603432564243  0.6732608067364335
  0.1337448398962660  0.9999936973948235  0.0065940816608723
  0.1337448398962660  0.9999936973948235  0.3399274146608711
  0.1337448398962660  0.9999936973948235  0.6732607276608683
  0.4670781248908676  0.3333270307567957  0.0065941310845739
  0.4670781248908676  0.3333270307567957  0.3399274640845726
  0.4670781248908676  0.3333270307567957  0.6732607770845697
  0.4670781195975718  0.6666603432564243  0.0065941607364376
  0.4670781195975718  0.6666603432564243  0.3399274937364364
  0.4670781195975718  0.6666603432564243  0.6732608067364335
  0.4670781688962645  0.9999936973948235  0.0065940816608723
  0.4670781688962645  0.9999936973948235  0.3399274146608711
  0.4670781688962645  0.9999936973948235  0.6732607276608683
  0.8004114678908674  0.3333270307567957  0.0065941310845739
  0.8004114678908674  0.3333270307567957  0.3399274640845726
  0.8004114678908674  0.3333270307567957  0.6732607770845697
  0.8004114625975713  0.6666603432564243  0.0065941607364376
  0.8004114625975713  0.6666603432564243  0.3399274937364364
  0.8004114625975713  0.6666603432564243  0.6732608067364335
  0.8004115118962640  0.9999936973948235  0.0065940816608723
  0.8004115118962640  0.9999936973948235  0.3399274146608711
  0.8004115118962640  0.9999936973948235  0.6732607276608683
  0.3108760894283101  0.1666654127607217  0.3085237950354311
  0.3108760894283101  0.1666654127607217  0.6418571380354308
  0.3108760894283101  0.1666654127607217  0.9751904520354315
  0.3108760958894443  0.4999987508537609  0.3085238023035055
  0.3108760958894443  0.4999987508537609  0.6418571453035050
  0.3108760958894443  0.4999987508537609  0.9751904593035058
  0.3108760914852343  0.8333320772584051  0.3085237971003859
  0.3108760914852343  0.8333320772584051  0.6418571401003856
  0.3108760914852343  0.8333320772584051  0.9751904541003864
  0.6442094034283108  0.1666654127607217  0.3085237950354311
  0.6442094034283108  0.1666654127607217  0.6418571380354308
  0.6442094034283108  0.1666654127607217  0.9751904520354315
  0.6442094098894451  0.4999987508537609  0.3085238023035055
  0.6442094098894451  0.4999987508537609  0.6418571453035050
  0.6442094098894451  0.4999987508537609  0.9751904593035058
  0.6442094054852351  0.8333320772584051  0.3085237971003859
  0.6442094054852351  0.8333320772584051  0.6418571401003856
  0.6442094054852351  0.8333320772584051  0.9751904541003864
  0.9775427764283129  0.1666654127607217  0.3085237950354311
  0.9775427764283129  0.1666654127607217  0.6418571380354308
  0.9775427764283129  0.1666654127607217  0.9751904520354315
  0.9775427828894472  0.4999987508537609  0.3085238023035055
  0.9775427828894472  0.4999987508537609  0.6418571453035050
  0.9775427828894472  0.4999987508537609  0.9751904593035058
  0.9775427784852372  0.8333320772584051  0.3085237971003859
  0.9775427784852372  0.8333320772584051  0.6418571401003856
  0.9775427784852372  0.8333320772584051  0.9751904541003864
