MA-Pb-I (Pseudocubic)  2x2x2            
   1.00000000000000     
    12.5802402495999992    0.0000000000000000    0.0000000000000000
     0.0001553879000000   12.5477800360000007    0.0000000000000000
    -0.0793351421000000   -0.0003075861000000   12.5938300832000003
   C    N    H    Pb   I 
     8     8    48     8    24
Direct
  0.4513867282221037 -0.0000211610736626  0.4981424226918005
  0.4513867282221037 -0.0000211610736626  0.9981424226918005
  0.4513867282221037  0.4999788389263375  0.4981424226918005
  0.4513867282221037  0.4999788389263375  0.9981424226918005
  0.9513867282221107 -0.0000211610736626  0.4981424226918005
  0.9513867282221107 -0.0000211610736626  0.9981424226918005
  0.9513867282221107  0.4999788389263375  0.4981424226918005
  0.9513867282221107  0.4999788389263375  0.9981424226918005
  0.0673815713659645  0.4999191820472728  0.0134876925439279
  0.0673815713659645  0.4999191820472728  0.5134877145439297
  0.0673815713659645  0.9999191520472703  0.0134876925439279
  0.0673815713659645  0.9999191520472703  0.5134877145439297
  0.5673815633659638  0.4999191820472728  0.0134876925439279
  0.5673815633659638  0.4999191820472728  0.5134877145439297
  0.5673815633659638  0.9999191520472703  0.0134876925439279
  0.5673815633659638  0.9999191520472703  0.5134877145439297
  0.4324717778181720  0.4998787099603158  0.4124081692105380
  0.4324717778181720  0.4998787099603158  0.9124081392105428
  0.4324717778181720  0.9998786799603133  0.4124081692105380
  0.4324717778181720  0.9998786799603133  0.9124081392105428
  0.9324717778181720  0.4998787099603158  0.4124081692105380
  0.9324717778181720  0.4998787099603158  0.9124081392105428
  0.9324717778181720  0.9998786799603133  0.4124081692105380
  0.9324717778181720  0.9998786799603133  0.9124081392105428
  0.4180674208013385  0.0719425820484273  0.0355360083915848
  0.4180674208013385  0.0719425820484273  0.5355360013915879
  0.4180674208013385  0.5719425820484272  0.0355360083915848
  0.4180674208013385  0.5719425820484272  0.5355360013915879
  0.9180674498013375  0.0719425820484273  0.0355360083915848
  0.9180674498013375  0.0719425820484273  0.5355360013915879
  0.9180674498013375  0.5719425820484272  0.0355360083915848
  0.9180674498013375  0.5719425820484272  0.5355360013915879
  0.4179366216189512  0.4282303743467331  0.0357446379444186
  0.4179366216189512  0.4282303743467331  0.5357446599444204
  0.4179366216189512  0.9282304043467354  0.0357446379444186
  0.4179366216189512  0.9282304043467354  0.5357446599444204
  0.9179366516189537  0.4282303743467331  0.0357446379444186
  0.9179366516189537  0.4282303743467331  0.5357446599444204
  0.9179366516189537  0.9282304043467354  0.0357446379444186
  0.9179366516189537  0.9282304043467354  0.5357446599444204
  0.1033949233423126  0.0672209538019601  0.4800180901459067
  0.1033949233423126  0.0672209538019601  0.9800180901459066
  0.1033949233423126  0.5672209618019607  0.4800180901459067
  0.1033949233423126  0.5672209618019607  0.9800180901459066
  0.6033949083423148  0.0672209538019601  0.4800180901459067
  0.6033949083423148  0.0672209538019601  0.9800180901459066
  0.6033949083423148  0.5672209618019607  0.4800180901459067
  0.6033949083423148  0.5672209618019607  0.9800180901459066
  0.1032868006545385  0.4324168904496735  0.4801923464898755
  0.1032868006545385  0.4324168904496735  0.9801923464898754
  0.1032868006545385  0.9324169194496723  0.4801923464898755
  0.1032868006545385  0.9324169194496723  0.9801923464898754
  0.6032867776545402  0.4324168904496735  0.4801923464898755
  0.6032867776545402  0.4324168904496735  0.9801923464898754
  0.6032867776545402  0.9324169194496723  0.4801923464898755
  0.6032867776545402  0.9324169194496723  0.9801923464898754
  0.0893123523418182 -0.0000073031859450  0.0942433410086127
  0.0893123523418182 -0.0000073031859450  0.5942433190086108
  0.0893123523418182  0.4999926698140563  0.0942433410086127
  0.0893123523418182  0.4999926698140563  0.5942433190086108
  0.5893123383418172 -0.0000073031859450  0.0942433410086127
  0.5893123383418172 -0.0000073031859450  0.5942433190086108
  0.5893123383418172  0.4999926698140563  0.0942433410086127
  0.5893123383418172  0.4999926698140563  0.5942433190086108
  0.2414888630475713  0.2499973703728438  0.2424777309925404
  0.2414888630475713  0.2499973703728438  0.7424777309925403
  0.2414888630475713  0.7499973703728439  0.2424777309925404
  0.2414888630475713  0.7499973703728439  0.7424777309925403
  0.7414888630475712  0.2499973703728438  0.2424777309925404
  0.7414888630475712  0.2499973703728438  0.7424777309925403
  0.7414888630475712  0.7499973703728439  0.2424777309925404
  0.7414888630475712  0.7499973703728439  0.7424777309925403
  0.2091534895325935  0.2499565522300276  0.4875101394724080
  0.2091534895325935  0.2499565522300276  0.9875101394724080
  0.2091534895325935  0.7499565672300252  0.4875101394724080
  0.2091534895325935  0.7499565672300252  0.9875101394724080
  0.7091534895325936  0.2499565522300276  0.4875101394724080
  0.7091534895325936  0.2499565522300276  0.9875101394724080
  0.7091534895325936  0.7499565672300252  0.4875101394724080
  0.7091534895325936  0.7499565672300252  0.9875101394724080
  0.2225211743048548  0.0000002669485958  0.2532285356532135
  0.2225211743048548  0.0000002669485958  0.7532285356532132
  0.2225211743048548  0.5000002889485976  0.2532285356532135
  0.2225211743048548  0.5000002889485976  0.7532285356532132
  0.7225211443048593  0.0000002669485958  0.2532285356532135
  0.7225211443048593  0.0000002669485958  0.7532285356532132
  0.7225211443048593  0.5000002889485976  0.2532285356532135
  0.7225211443048593  0.5000002889485976  0.7532285356532132
  0.4825882869497833  0.2501166090537426  0.2149048744551642
  0.4825882869497833  0.2501166090537426  0.7149048894551620
  0.4825882869497833  0.7501166390537453  0.2149048744551642
  0.4825882869497833  0.7501166390537453  0.7149048894551620
  0.9825882579497843  0.2501166090537426  0.2149048744551642
  0.9825882579497843  0.2501166090537426  0.7149048894551620
  0.9825882579497843  0.7501166390537453  0.2149048744551642
  0.9825882579497843  0.7501166390537453  0.7149048894551620
